39 0
-15 -100 0
-91 -94 87 -100 0
46 35 0
76 91 87 -19 0
-76 -95 87 -56 -19 97 0
-95 -98 -56 -100 0
95 87 -99 -19 0
-33 27 -99 0
-99 -100 0
79 -12 76 -100 0
76 87 -100 0
87 -100 0
d 76 87 -100 0
d -94 -91 87 -100 0
-100 0
-13 0
-95 0
79 0
-5 0
-87 0
33 0
55 0
-54 0
27 0
-49 0
76 0
64 0
-46 0
43 0
82 0
-70 0
-59 0
-58 0
35 0
-23 0
69 0
-48 0
16 0
72 0
-47 0
34 0
9 0
56 0
-11 0
36 0
25 0
92 0
-67 0
-75 0
-20 0
-60 0
-68 0
30 0
-78 0
6 0
80 0
-29 0
-90 0
89 0
63 0
-44 0
-62 0
-41 0
-3 0
12 0
-81 0
88 0
24 0
-28 0
98 0
65 0
-91 0
66 0
50 0
14 0
-7 0
-99 0
-18 0
73 0
-71 0
-21 0
0
